
100
24231

643 683
1 92
571 618
845 842
740 835
534 516
621 632
336 370
580 529
132 108
777 683
675 601
354 282
466 379
807 737
441 444
873 960
961 972
863 839
187 92
116 76
304 289
279 362
735 705
734 827
491 563
548 640
621 574
128 35
546 527
131 214
465 417
20 9
698 656
946 911
160 69
514 581
29 24
316 352
75 160
951 861
754 729
818 897
214 218
638 719
793 700
483 511
817 917
673 625
249 283
748 718
539 482
129 214
627 618
142 49
395 450
507 557
70 3
560 649
155 89
711 650
432 342
109 30
1016 1000
76 65
164 157
533 506
342 246
461 531
474 475
567 577
493 544
227 295
269 212
712 695
467 429
472 521
912 916
18 9
208 278
491 564
100 54
824 754
416 402
373 317
110 195
971 967
21 47
827 822
655 705
849 898
786 702
357 347
498 550
920 922
41 41
909 850
653 674
266 197
986 967
